(declare-datatypes ((Unit 0)) (((unit))))
(declare-datatypes ((Bits 0)) (((Bits (len (_ BitVec 8)) (contents (_ BitVec 64))))))
(declare-datatypes ((Zfloat_bits 0)) (((Zfloat_bits (Zfloat_bits_zexp Bits) (Zfloat_bits_zmantissa Bits) (Zfloat_bits_zsign (_ BitVec 1))))))
(declare-datatypes ((Zexception 0)) (((z__dummy_exnz3 (unz__dummy_exnz3 Unit)))))
(declare-const zz41029/1 (_ BitVec 16))
(define-const zz41030/2 (_ BitVec 16) zz41029/1)
(define-const zz41047/2 Bool (= ((_ extract 15 15) zz41030/2) #b1))
(define-const zz41053/2 Zfloat_bits (Zfloat_bits (Bits #x05 (concat #b00000000000000000000000000000000000000000000000000000000000 ((_ extract 14 10) zz41030/2))) (Bits #x0A (concat #b000000000000000000000000000000000000000000000000000000 ((_ extract 9 0) zz41030/2))) ((_ extract 15 15) zz41030/2)))
(declare-const zz41075/1 Bits)
(assert (= (bvand (bvnot (bvnot (bvshl #xFFFFFFFFFFFFFFFF (concat #x00000000000000 (len zz41075/1))))) (contents zz41075/1)) #x0000000000000000))
(define-const zz41075/2 Bits (Zfloat_bits_zexp zz41053/2))
(declare-const zz41076/1 Bits)
(assert (= (bvand (bvnot (bvnot (bvshl #xFFFFFFFFFFFFFFFF (concat #x00000000000000 (len zz41076/1))))) (contents zz41076/1)) #x0000000000000000))
(define-const zz41076/2 Bits (Zfloat_bits_zmantissa zz41053/2))
(declare-const zz41079/1 Bits)
(assert (= (bvand (bvnot (bvnot (bvshl #xFFFFFFFFFFFFFFFF (concat #x00000000000000 (len zz41079/1))))) (contents zz41079/1)) #x0000000000000000))
(declare-const zz41081/1 Bits)
(assert (= (bvand (bvnot (bvnot (bvshl #xFFFFFFFFFFFFFFFF (concat #x00000000000000 (len zz41081/1))))) (contents zz41081/1)) #x0000000000000000))
(define-const zz41081/2 Bits (Bits ((_ extract 7 0) (concat #x000000000000000000000000000000 (len zz41075/2))) #x0000000000000000))
(define-const zz41079/2 Bits (Bits (len zz41081/2) (bvand (bvnot (bvshl #xFFFFFFFFFFFFFFFF (concat #x00000000000000 (len zz41081/2)))) (bvnot (contents zz41081/2)))))
(declare-const zz41083/1 Bits)
(assert (= (bvand (bvnot (bvnot (bvshl #xFFFFFFFFFFFFFFFF (concat #x00000000000000 (len zz41083/1))))) (contents zz41083/1)) #x0000000000000000))
(define-const zz41083/2 Bits (Bits ((_ extract 7 0) (concat #x000000000000000000000000000000 (len zz41076/2))) #x0000000000000000))
(define-const zz41046/2 Bool (and zz41047/2 (= (len zz41075/2) (len zz41079/2)) (= (bvand (bvnot (bvshl #xFFFFFFFFFFFFFFFF (concat #x00000000000000 (len zz41075/2)))) (contents zz41075/2)) (bvand (bvnot (bvshl #xFFFFFFFFFFFFFFFF (concat #x00000000000000 (len zz41079/2)))) (contents zz41079/2))) (= (len zz41076/2) (len zz41083/2)) (= (bvand (bvnot (bvshl #xFFFFFFFFFFFFFFFF (concat #x00000000000000 (len zz41076/2)))) (contents zz41076/2)) (bvand (bvnot (bvshl #xFFFFFFFFFFFFFFFF (concat #x00000000000000 (len zz41083/2)))) (contents zz41083/2)))))
(declare-const zz41085/1 (_ BitVec 64))
(define-const zz41087/2 Bool (= zz41046/2 false))
(define-const zz41089/2 Bool (= zz41046/2 true))
(define-const zz41045/2 (_ BitVec 64) (ite (and (not zz41089/2) (not zz41087/2)) zz41085/1 (ite zz41087/2 #x0000000000000000 #x0000000000000001)))
(define-const zz41092/2 Bool (= ((_ extract 15 15) zz41030/2) #b1))
(define-const zz41045/4 (_ BitVec 64) zz41045/2)
(declare-const zz41120/1 Bits)
(assert (= (bvand (bvnot (bvnot (bvshl #xFFFFFFFFFFFFFFFF (concat #x00000000000000 (len zz41120/1))))) (contents zz41120/1)) #x0000000000000000))
(define-const zz41120/2 Bits (Zfloat_bits_zexp (Zfloat_bits (Bits #x05 (concat #b00000000000000000000000000000000000000000000000000000000000 ((_ extract 14 10) zz41030/2))) (Bits #x0A (concat #b000000000000000000000000000000000000000000000000000000 ((_ extract 9 0) zz41030/2))) ((_ extract 15 15) zz41030/2))))
(declare-const zz41124/1 Bits)
(assert (= (bvand (bvnot (bvnot (bvshl #xFFFFFFFFFFFFFFFF (concat #x00000000000000 (len zz41124/1))))) (contents zz41124/1)) #x0000000000000000))
(declare-const zz41126/1 Bits)
(assert (= (bvand (bvnot (bvnot (bvshl #xFFFFFFFFFFFFFFFF (concat #x00000000000000 (len zz41126/1))))) (contents zz41126/1)) #x0000000000000000))
(define-const zz41126/2 Bits (Bits ((_ extract 7 0) (concat #x000000000000000000000000000000 (len zz41120/2))) #x0000000000000000))
(define-const zz41124/2 Bits (Bits (len zz41126/2) (bvand (bvnot (bvshl #xFFFFFFFFFFFFFFFF (concat #x00000000000000 (len zz41126/2)))) (bvnot (contents zz41126/2)))))
(declare-const zz41128/1 Bits)
(assert (= (bvand (bvnot (bvnot (bvshl #xFFFFFFFFFFFFFFFF (concat #x00000000000000 (len zz41128/1))))) (contents zz41128/1)) #x0000000000000000))
(define-const zz41128/2 Bits (Bits ((_ extract 7 0) (concat #x000000000000000000000000000000 (len zz41120/2))) #x0000000000000000))
(define-const zz41091/2 Bool (and zz41092/2 (or (not (= (len zz41120/2) (len zz41124/2))) (not (= (bvand (bvnot (bvshl #xFFFFFFFFFFFFFFFF (concat #x00000000000000 (len zz41120/2)))) (contents zz41120/2)) (bvand (bvnot (bvshl #xFFFFFFFFFFFFFFFF (concat #x00000000000000 (len zz41124/2)))) (contents zz41124/2))))) (or (not (= (len zz41120/2) (len zz41128/2))) (not (= (bvand (bvnot (bvshl #xFFFFFFFFFFFFFFFF (concat #x00000000000000 (len zz41120/2)))) (contents zz41120/2)) (bvand (bvnot (bvshl #xFFFFFFFFFFFFFFFF (concat #x00000000000000 (len zz41128/2)))) (contents zz41128/2)))))))
(declare-const zz41131/1 (_ BitVec 64))
(define-const zz41133/2 Bool (= zz41091/2 false))
(define-const zz41135/2 Bool (= zz41091/2 true))
(define-const zphiz3141 Bool (and (not zz41135/2) (not zz41133/2)))
(define-const zz41045/6 (_ BitVec 64) zz41045/4)
(define-const zz41090/2 (_ BitVec 64) (ite zphiz3141 zz41131/1 (ite zz41133/2 #x0000000000000000 #x0000000000000001)))
(define-const zz41044/2 (_ BitVec 64) ((_ extract 63 0) (bvadd ((_ sign_extend 1) zz41045/6) ((_ sign_extend 1) zz41090/2))))
(define-const zz41138/2 Bool (= ((_ extract 15 15) zz41030/2) #b1))
(define-const zz41044/4 (_ BitVec 64) zz41044/2)
(define-const zz41144/2 Zfloat_bits (Zfloat_bits (Bits #x05 (concat #b00000000000000000000000000000000000000000000000000000000000 ((_ extract 14 10) zz41030/2))) (Bits #x0A (concat #b000000000000000000000000000000000000000000000000000000 ((_ extract 9 0) zz41030/2))) ((_ extract 15 15) zz41030/2)))
(declare-const zz41166/1 Bits)
(assert (= (bvand (bvnot (bvnot (bvshl #xFFFFFFFFFFFFFFFF (concat #x00000000000000 (len zz41166/1))))) (contents zz41166/1)) #x0000000000000000))
(define-const zz41166/2 Bits (Zfloat_bits_zexp zz41144/2))
(declare-const zz41167/1 Bits)
(assert (= (bvand (bvnot (bvnot (bvshl #xFFFFFFFFFFFFFFFF (concat #x00000000000000 (len zz41167/1))))) (contents zz41167/1)) #x0000000000000000))
(define-const zz41167/2 Bits (Zfloat_bits_zmantissa zz41144/2))
(declare-const zz41170/1 Bits)
(assert (= (bvand (bvnot (bvnot (bvshl #xFFFFFFFFFFFFFFFF (concat #x00000000000000 (len zz41170/1))))) (contents zz41170/1)) #x0000000000000000))
(define-const zz41170/2 Bits (Bits ((_ extract 7 0) (concat #x000000000000000000000000000000 (len zz41166/2))) #x0000000000000000))
(declare-const zz41173/1 Bits)
(assert (= (bvand (bvnot (bvnot (bvshl #xFFFFFFFFFFFFFFFF (concat #x00000000000000 (len zz41173/1))))) (contents zz41173/1)) #x0000000000000000))
(define-const zz41173/2 Bits (Bits ((_ extract 7 0) (concat #x000000000000000000000000000000 (len zz41167/2))) #x0000000000000000))
(define-const zz41137/2 Bool (and zz41138/2 (= (len zz41166/2) (len zz41170/2)) (= (bvand (bvnot (bvshl #xFFFFFFFFFFFFFFFF (concat #x00000000000000 (len zz41166/2)))) (contents zz41166/2)) (bvand (bvnot (bvshl #xFFFFFFFFFFFFFFFF (concat #x00000000000000 (len zz41170/2)))) (contents zz41170/2))) (or (not (= (len zz41167/2) (len zz41173/2))) (not (= (bvand (bvnot (bvshl #xFFFFFFFFFFFFFFFF (concat #x00000000000000 (len zz41167/2)))) (contents zz41167/2)) (bvand (bvnot (bvshl #xFFFFFFFFFFFFFFFF (concat #x00000000000000 (len zz41173/2)))) (contents zz41173/2)))))))
(declare-const zz41176/1 (_ BitVec 64))
(define-const zz41178/2 Bool (= zz41137/2 false))
(define-const zz41180/2 Bool (= zz41137/2 true))
(define-const zphiz3210 Bool (and (not zz41180/2) (not zz41178/2)))
(define-const zz41044/6 (_ BitVec 64) zz41044/4)
(define-const zz41136/2 (_ BitVec 64) (ite zphiz3210 zz41176/1 (ite zz41178/2 #x0000000000000000 #x0000000000000001)))
(define-const zz41043/2 (_ BitVec 64) ((_ extract 63 0) (bvadd ((_ sign_extend 1) zz41044/6) ((_ sign_extend 1) zz41136/2))))
(define-const zz41183/2 Bool (= ((_ extract 15 15) zz41030/2) #b1))
(define-const zz41043/4 (_ BitVec 64) zz41043/2)
(define-const zz41189/2 Zfloat_bits (Zfloat_bits (Bits #x05 (concat #b00000000000000000000000000000000000000000000000000000000000 ((_ extract 14 10) zz41030/2))) (Bits #x0A (concat #b000000000000000000000000000000000000000000000000000000 ((_ extract 9 0) zz41030/2))) ((_ extract 15 15) zz41030/2)))
(declare-const zz41211/1 Bits)
(assert (= (bvand (bvnot (bvnot (bvshl #xFFFFFFFFFFFFFFFF (concat #x00000000000000 (len zz41211/1))))) (contents zz41211/1)) #x0000000000000000))
(define-const zz41211/2 Bits (Zfloat_bits_zexp zz41189/2))
(declare-const zz41212/1 Bits)
(assert (= (bvand (bvnot (bvnot (bvshl #xFFFFFFFFFFFFFFFF (concat #x00000000000000 (len zz41212/1))))) (contents zz41212/1)) #x0000000000000000))
(define-const zz41212/2 Bits (Zfloat_bits_zmantissa zz41189/2))
(declare-const zz41215/1 Bits)
(assert (= (bvand (bvnot (bvnot (bvshl #xFFFFFFFFFFFFFFFF (concat #x00000000000000 (len zz41215/1))))) (contents zz41215/1)) #x0000000000000000))
(define-const zz41215/2 Bits (Bits ((_ extract 7 0) (concat #x000000000000000000000000000000 (len zz41211/2))) #x0000000000000000))
(declare-const zz41218/1 Bits)
(assert (= (bvand (bvnot (bvnot (bvshl #xFFFFFFFFFFFFFFFF (concat #x00000000000000 (len zz41218/1))))) (contents zz41218/1)) #x0000000000000000))
(define-const zz41218/2 Bits (Bits ((_ extract 7 0) (concat #x000000000000000000000000000000 (len zz41212/2))) #x0000000000000000))
(define-const zz41182/2 Bool (and zz41183/2 (= (len zz41211/2) (len zz41215/2)) (= (bvand (bvnot (bvshl #xFFFFFFFFFFFFFFFF (concat #x00000000000000 (len zz41211/2)))) (contents zz41211/2)) (bvand (bvnot (bvshl #xFFFFFFFFFFFFFFFF (concat #x00000000000000 (len zz41215/2)))) (contents zz41215/2))) (= (len zz41212/2) (len zz41218/2)) (= (bvand (bvnot (bvshl #xFFFFFFFFFFFFFFFF (concat #x00000000000000 (len zz41212/2)))) (contents zz41212/2)) (bvand (bvnot (bvshl #xFFFFFFFFFFFFFFFF (concat #x00000000000000 (len zz41218/2)))) (contents zz41218/2)))))
(declare-const zz41220/1 (_ BitVec 64))
(define-const zz41222/2 Bool (= zz41182/2 false))
(define-const zz41224/2 Bool (= zz41182/2 true))
(define-const zphiz3279 Bool (and (not zz41224/2) (not zz41222/2)))
(define-const zz41043/6 (_ BitVec 64) zz41043/4)
(define-const zz41181/2 (_ BitVec 64) (ite zphiz3279 zz41220/1 (ite zz41222/2 #x0000000000000000 #x0000000000000001)))
(define-const zz41042/2 (_ BitVec 64) ((_ extract 63 0) (bvadd ((_ sign_extend 1) zz41043/6) ((_ sign_extend 1) zz41181/2))))
(define-const zz41227/2 Bool (= ((_ extract 15 15) zz41030/2) #b0))
(define-const zz41042/4 (_ BitVec 64) zz41042/2)
(define-const zz41233/2 Zfloat_bits (Zfloat_bits (Bits #x05 (concat #b00000000000000000000000000000000000000000000000000000000000 ((_ extract 14 10) zz41030/2))) (Bits #x0A (concat #b000000000000000000000000000000000000000000000000000000 ((_ extract 9 0) zz41030/2))) ((_ extract 15 15) zz41030/2)))
(declare-const zz41255/1 Bits)
(assert (= (bvand (bvnot (bvnot (bvshl #xFFFFFFFFFFFFFFFF (concat #x00000000000000 (len zz41255/1))))) (contents zz41255/1)) #x0000000000000000))
(define-const zz41255/2 Bits (Zfloat_bits_zexp zz41233/2))
(declare-const zz41256/1 Bits)
(assert (= (bvand (bvnot (bvnot (bvshl #xFFFFFFFFFFFFFFFF (concat #x00000000000000 (len zz41256/1))))) (contents zz41256/1)) #x0000000000000000))
(define-const zz41256/2 Bits (Zfloat_bits_zmantissa zz41233/2))
(declare-const zz41259/1 Bits)
(assert (= (bvand (bvnot (bvnot (bvshl #xFFFFFFFFFFFFFFFF (concat #x00000000000000 (len zz41259/1))))) (contents zz41259/1)) #x0000000000000000))
(define-const zz41259/2 Bits (Bits ((_ extract 7 0) (concat #x000000000000000000000000000000 (len zz41255/2))) #x0000000000000000))
(declare-const zz41262/1 Bits)
(assert (= (bvand (bvnot (bvnot (bvshl #xFFFFFFFFFFFFFFFF (concat #x00000000000000 (len zz41262/1))))) (contents zz41262/1)) #x0000000000000000))
(define-const zz41262/2 Bits (Bits ((_ extract 7 0) (concat #x000000000000000000000000000000 (len zz41256/2))) #x0000000000000000))
(define-const zz41226/2 Bool (and zz41227/2 (= (len zz41255/2) (len zz41259/2)) (= (bvand (bvnot (bvshl #xFFFFFFFFFFFFFFFF (concat #x00000000000000 (len zz41255/2)))) (contents zz41255/2)) (bvand (bvnot (bvshl #xFFFFFFFFFFFFFFFF (concat #x00000000000000 (len zz41259/2)))) (contents zz41259/2))) (= (len zz41256/2) (len zz41262/2)) (= (bvand (bvnot (bvshl #xFFFFFFFFFFFFFFFF (concat #x00000000000000 (len zz41256/2)))) (contents zz41256/2)) (bvand (bvnot (bvshl #xFFFFFFFFFFFFFFFF (concat #x00000000000000 (len zz41262/2)))) (contents zz41262/2)))))
(declare-const zz41264/1 (_ BitVec 64))
(define-const zz41266/2 Bool (= zz41226/2 false))
(define-const zz41268/2 Bool (= zz41226/2 true))
(define-const zphiz3348 Bool (and (not zz41268/2) (not zz41266/2)))
(define-const zz41042/6 (_ BitVec 64) zz41042/4)
(define-const zz41225/2 (_ BitVec 64) (ite zphiz3348 zz41264/1 (ite zz41266/2 #x0000000000000000 #x0000000000000001)))
(define-const zz41041/2 (_ BitVec 64) ((_ extract 63 0) (bvadd ((_ sign_extend 1) zz41042/6) ((_ sign_extend 1) zz41225/2))))
(define-const zz41271/2 Bool (= ((_ extract 15 15) zz41030/2) #b0))
(define-const zz41041/4 (_ BitVec 64) zz41041/2)
(define-const zz41277/2 Zfloat_bits (Zfloat_bits (Bits #x05 (concat #b00000000000000000000000000000000000000000000000000000000000 ((_ extract 14 10) zz41030/2))) (Bits #x0A (concat #b000000000000000000000000000000000000000000000000000000 ((_ extract 9 0) zz41030/2))) ((_ extract 15 15) zz41030/2)))
(declare-const zz41299/1 Bits)
(assert (= (bvand (bvnot (bvnot (bvshl #xFFFFFFFFFFFFFFFF (concat #x00000000000000 (len zz41299/1))))) (contents zz41299/1)) #x0000000000000000))
(define-const zz41299/2 Bits (Zfloat_bits_zexp zz41277/2))
(declare-const zz41300/1 Bits)
(assert (= (bvand (bvnot (bvnot (bvshl #xFFFFFFFFFFFFFFFF (concat #x00000000000000 (len zz41300/1))))) (contents zz41300/1)) #x0000000000000000))
(define-const zz41300/2 Bits (Zfloat_bits_zmantissa zz41277/2))
(declare-const zz41303/1 Bits)
(assert (= (bvand (bvnot (bvnot (bvshl #xFFFFFFFFFFFFFFFF (concat #x00000000000000 (len zz41303/1))))) (contents zz41303/1)) #x0000000000000000))
(define-const zz41303/2 Bits (Bits ((_ extract 7 0) (concat #x000000000000000000000000000000 (len zz41299/2))) #x0000000000000000))
(declare-const zz41306/1 Bits)
(assert (= (bvand (bvnot (bvnot (bvshl #xFFFFFFFFFFFFFFFF (concat #x00000000000000 (len zz41306/1))))) (contents zz41306/1)) #x0000000000000000))
(define-const zz41306/2 Bits (Bits ((_ extract 7 0) (concat #x000000000000000000000000000000 (len zz41300/2))) #x0000000000000000))
(define-const zz41270/2 Bool (and zz41271/2 (= (len zz41299/2) (len zz41303/2)) (= (bvand (bvnot (bvshl #xFFFFFFFFFFFFFFFF (concat #x00000000000000 (len zz41299/2)))) (contents zz41299/2)) (bvand (bvnot (bvshl #xFFFFFFFFFFFFFFFF (concat #x00000000000000 (len zz41303/2)))) (contents zz41303/2))) (or (not (= (len zz41300/2) (len zz41306/2))) (not (= (bvand (bvnot (bvshl #xFFFFFFFFFFFFFFFF (concat #x00000000000000 (len zz41300/2)))) (contents zz41300/2)) (bvand (bvnot (bvshl #xFFFFFFFFFFFFFFFF (concat #x00000000000000 (len zz41306/2)))) (contents zz41306/2)))))))
(declare-const zz41309/1 (_ BitVec 64))
(define-const zz41311/2 Bool (= zz41270/2 false))
(define-const zz41313/2 Bool (= zz41270/2 true))
(define-const zphiz3417 Bool (and (not zz41313/2) (not zz41311/2)))
(define-const zz41041/6 (_ BitVec 64) zz41041/4)
(define-const zz41269/2 (_ BitVec 64) (ite zphiz3417 zz41309/1 (ite zz41311/2 #x0000000000000000 #x0000000000000001)))
(define-const zz41040/2 (_ BitVec 64) ((_ extract 63 0) (bvadd ((_ sign_extend 1) zz41041/6) ((_ sign_extend 1) zz41269/2))))
(define-const zz41316/2 Bool (= ((_ extract 15 15) zz41030/2) #b0))
(define-const zz41040/4 (_ BitVec 64) zz41040/2)
(declare-const zz41344/1 Bits)
(assert (= (bvand (bvnot (bvnot (bvshl #xFFFFFFFFFFFFFFFF (concat #x00000000000000 (len zz41344/1))))) (contents zz41344/1)) #x0000000000000000))
(define-const zz41344/2 Bits (Zfloat_bits_zexp (Zfloat_bits (Bits #x05 (concat #b00000000000000000000000000000000000000000000000000000000000 ((_ extract 14 10) zz41030/2))) (Bits #x0A (concat #b000000000000000000000000000000000000000000000000000000 ((_ extract 9 0) zz41030/2))) ((_ extract 15 15) zz41030/2))))
(declare-const zz41348/1 Bits)
(assert (= (bvand (bvnot (bvnot (bvshl #xFFFFFFFFFFFFFFFF (concat #x00000000000000 (len zz41348/1))))) (contents zz41348/1)) #x0000000000000000))
(declare-const zz41350/1 Bits)
(assert (= (bvand (bvnot (bvnot (bvshl #xFFFFFFFFFFFFFFFF (concat #x00000000000000 (len zz41350/1))))) (contents zz41350/1)) #x0000000000000000))
(define-const zz41350/2 Bits (Bits ((_ extract 7 0) (concat #x000000000000000000000000000000 (len zz41344/2))) #x0000000000000000))
(define-const zz41348/2 Bits (Bits (len zz41350/2) (bvand (bvnot (bvshl #xFFFFFFFFFFFFFFFF (concat #x00000000000000 (len zz41350/2)))) (bvnot (contents zz41350/2)))))
(declare-const zz41352/1 Bits)
(assert (= (bvand (bvnot (bvnot (bvshl #xFFFFFFFFFFFFFFFF (concat #x00000000000000 (len zz41352/1))))) (contents zz41352/1)) #x0000000000000000))
(define-const zz41352/2 Bits (Bits ((_ extract 7 0) (concat #x000000000000000000000000000000 (len zz41344/2))) #x0000000000000000))
(define-const zz41315/2 Bool (and zz41316/2 (or (not (= (len zz41344/2) (len zz41348/2))) (not (= (bvand (bvnot (bvshl #xFFFFFFFFFFFFFFFF (concat #x00000000000000 (len zz41344/2)))) (contents zz41344/2)) (bvand (bvnot (bvshl #xFFFFFFFFFFFFFFFF (concat #x00000000000000 (len zz41348/2)))) (contents zz41348/2))))) (or (not (= (len zz41344/2) (len zz41352/2))) (not (= (bvand (bvnot (bvshl #xFFFFFFFFFFFFFFFF (concat #x00000000000000 (len zz41344/2)))) (contents zz41344/2)) (bvand (bvnot (bvshl #xFFFFFFFFFFFFFFFF (concat #x00000000000000 (len zz41352/2)))) (contents zz41352/2)))))))
(declare-const zz41355/1 (_ BitVec 64))
(define-const zz41357/2 Bool (= zz41315/2 false))
(define-const zz41359/2 Bool (= zz41315/2 true))
(define-const zphiz3488 Bool (and (not zz41359/2) (not zz41357/2)))
(define-const zz41040/6 (_ BitVec 64) zz41040/4)
(define-const zz41314/2 (_ BitVec 64) (ite zphiz3488 zz41355/1 (ite zz41357/2 #x0000000000000000 #x0000000000000001)))
(define-const zz41039/2 (_ BitVec 64) ((_ extract 63 0) (bvadd ((_ sign_extend 1) zz41040/6) ((_ sign_extend 1) zz41314/2))))
(define-const zz41362/2 Bool (= ((_ extract 15 15) zz41030/2) #b0))
(define-const zz41039/4 (_ BitVec 64) zz41039/2)
(define-const zz41368/2 Zfloat_bits (Zfloat_bits (Bits #x05 (concat #b00000000000000000000000000000000000000000000000000000000000 ((_ extract 14 10) zz41030/2))) (Bits #x0A (concat #b000000000000000000000000000000000000000000000000000000 ((_ extract 9 0) zz41030/2))) ((_ extract 15 15) zz41030/2)))
(declare-const zz41390/1 Bits)
(assert (= (bvand (bvnot (bvnot (bvshl #xFFFFFFFFFFFFFFFF (concat #x00000000000000 (len zz41390/1))))) (contents zz41390/1)) #x0000000000000000))
(define-const zz41390/2 Bits (Zfloat_bits_zexp zz41368/2))
(declare-const zz41391/1 Bits)
(assert (= (bvand (bvnot (bvnot (bvshl #xFFFFFFFFFFFFFFFF (concat #x00000000000000 (len zz41391/1))))) (contents zz41391/1)) #x0000000000000000))
(define-const zz41391/2 Bits (Zfloat_bits_zmantissa zz41368/2))
(declare-const zz41394/1 Bits)
(assert (= (bvand (bvnot (bvnot (bvshl #xFFFFFFFFFFFFFFFF (concat #x00000000000000 (len zz41394/1))))) (contents zz41394/1)) #x0000000000000000))
(declare-const zz41396/1 Bits)
(assert (= (bvand (bvnot (bvnot (bvshl #xFFFFFFFFFFFFFFFF (concat #x00000000000000 (len zz41396/1))))) (contents zz41396/1)) #x0000000000000000))
(define-const zz41396/2 Bits (Bits ((_ extract 7 0) (concat #x000000000000000000000000000000 (len zz41390/2))) #x0000000000000000))
(define-const zz41394/2 Bits (Bits (len zz41396/2) (bvand (bvnot (bvshl #xFFFFFFFFFFFFFFFF (concat #x00000000000000 (len zz41396/2)))) (bvnot (contents zz41396/2)))))
(declare-const zz41398/1 Bits)
(assert (= (bvand (bvnot (bvnot (bvshl #xFFFFFFFFFFFFFFFF (concat #x00000000000000 (len zz41398/1))))) (contents zz41398/1)) #x0000000000000000))
(define-const zz41398/2 Bits (Bits ((_ extract 7 0) (concat #x000000000000000000000000000000 (len zz41391/2))) #x0000000000000000))
(define-const zz41361/2 Bool (and zz41362/2 (= (len zz41390/2) (len zz41394/2)) (= (bvand (bvnot (bvshl #xFFFFFFFFFFFFFFFF (concat #x00000000000000 (len zz41390/2)))) (contents zz41390/2)) (bvand (bvnot (bvshl #xFFFFFFFFFFFFFFFF (concat #x00000000000000 (len zz41394/2)))) (contents zz41394/2))) (= (len zz41391/2) (len zz41398/2)) (= (bvand (bvnot (bvshl #xFFFFFFFFFFFFFFFF (concat #x00000000000000 (len zz41391/2)))) (contents zz41391/2)) (bvand (bvnot (bvshl #xFFFFFFFFFFFFFFFF (concat #x00000000000000 (len zz41398/2)))) (contents zz41398/2)))))
(declare-const zz41400/1 (_ BitVec 64))
(define-const zz41402/2 Bool (= zz41361/2 false))
(define-const zz41404/2 Bool (= zz41361/2 true))
(define-const zphiz3559 Bool (and (not zz41404/2) (not zz41402/2)))
(define-const zz41039/6 (_ BitVec 64) zz41039/4)
(define-const zz41360/2 (_ BitVec 64) (ite zphiz3559 zz41400/1 (ite zz41402/2 #x0000000000000000 #x0000000000000001)))
(define-const zz41038/2 (_ BitVec 64) ((_ extract 63 0) (bvadd ((_ sign_extend 1) zz41039/6) ((_ sign_extend 1) zz41360/2))))
(define-const zz41038/4 (_ BitVec 64) zz41038/2)
(declare-const zz41429/1 Bits)
(assert (= (bvand (bvnot (bvnot (bvshl #xFFFFFFFFFFFFFFFF (concat #x00000000000000 (len zz41429/1))))) (contents zz41429/1)) #x0000000000000000))
(define-const zz41429/2 Bits (Zfloat_bits_zmantissa (Zfloat_bits (Bits #x05 (concat #b00000000000000000000000000000000000000000000000000000000000 ((_ extract 14 10) zz41030/2))) (Bits #x0A (concat #b000000000000000000000000000000000000000000000000000000 ((_ extract 9 0) zz41030/2))) ((_ extract 15 15) zz41030/2))))
(define-const zz41038/6 (_ BitVec 64) zz41038/4)
(define-const zz41432/2 Zfloat_bits (Zfloat_bits (Bits #x05 (concat #b00000000000000000000000000000000000000000000000000000000000 ((_ extract 14 10) zz41030/2))) (Bits #x0A (concat #b000000000000000000000000000000000000000000000000000000 ((_ extract 9 0) zz41030/2))) ((_ extract 15 15) zz41030/2)))
(declare-const zz41454/1 Bits)
(assert (= (bvand (bvnot (bvnot (bvshl #xFFFFFFFFFFFFFFFF (concat #x00000000000000 (len zz41454/1))))) (contents zz41454/1)) #x0000000000000000))
(define-const zz41454/2 Bits (Zfloat_bits_zexp zz41432/2))
(declare-const zz41455/1 Bits)
(assert (= (bvand (bvnot (bvnot (bvshl #xFFFFFFFFFFFFFFFF (concat #x00000000000000 (len zz41455/1))))) (contents zz41455/1)) #x0000000000000000))
(define-const zz41455/2 Bits (Zfloat_bits_zmantissa zz41432/2))
(declare-const zz41458/1 Bits)
(assert (= (bvand (bvnot (bvnot (bvshl #xFFFFFFFFFFFFFFFF (concat #x00000000000000 (len zz41458/1))))) (contents zz41458/1)) #x0000000000000000))
(declare-const zz41460/1 Bits)
(assert (= (bvand (bvnot (bvnot (bvshl #xFFFFFFFFFFFFFFFF (concat #x00000000000000 (len zz41460/1))))) (contents zz41460/1)) #x0000000000000000))
(define-const zz41460/2 Bits (Bits ((_ extract 7 0) (concat #x000000000000000000000000000000 (len zz41454/2))) #x0000000000000000))
(define-const zz41458/2 Bits (Bits (len zz41460/2) (bvand (bvnot (bvshl #xFFFFFFFFFFFFFFFF (concat #x00000000000000 (len zz41460/2)))) (bvnot (contents zz41460/2)))))
(declare-const zz41462/1 Bits)
(assert (= (bvand (bvnot (bvnot (bvshl #xFFFFFFFFFFFFFFFF (concat #x00000000000000 (len zz41462/1))))) (contents zz41462/1)) #x0000000000000000))
(define-const zz41462/2 Bits (Bits ((_ extract 7 0) (concat #x000000000000000000000000000000 (len zz41455/2))) #x0000000000000000))
(define-const zz41468/2 (_ BitVec 128) (concat #x000000000000000000000000000000 (len zz41429/2)))
(define-const zz41406/2 Bool (and (= (len zz41454/2) (len zz41458/2)) (= (bvand (bvnot (bvshl #xFFFFFFFFFFFFFFFF (concat #x00000000000000 (len zz41454/2)))) (contents zz41454/2)) (bvand (bvnot (bvshl #xFFFFFFFFFFFFFFFF (concat #x00000000000000 (len zz41458/2)))) (contents zz41458/2))) (or (not (= (len zz41455/2) (len zz41462/2))) (not (= (bvand (bvnot (bvshl #xFFFFFFFFFFFFFFFF (concat #x00000000000000 (len zz41455/2)))) (contents zz41455/2)) (bvand (bvnot (bvshl #xFFFFFFFFFFFFFFFF (concat #x00000000000000 (len zz41462/2)))) (contents zz41462/2))))) (= ((_ extract 0 0) (bvlshr (contents zz41429/2) ((_ extract 63 0) ((_ extract 127 0) (bvsub ((_ sign_extend 1) zz41468/2) #b000000000000000000000000000000000000000000000000000000000000000000000000000000000000000000000000000000000000000000000000000000001))))) #b0)))
(declare-const zz41469/1 (_ BitVec 64))
(define-const zz41471/2 Bool (= zz41406/2 false))
(define-const zz41473/2 Bool (= zz41406/2 true))
(define-const zphiz3666 Bool (and (not zz41473/2) (not zz41471/2)))
(define-const zz41038/8 (_ BitVec 64) zz41038/6)
(define-const zz41405/2 (_ BitVec 64) (ite zphiz3666 zz41469/1 (ite zz41471/2 #x0000000000000000 #x0000000000000001)))
(define-const zz41037/2 (_ BitVec 64) ((_ extract 63 0) (bvadd ((_ sign_extend 1) zz41038/8) ((_ sign_extend 1) zz41405/2))))
(define-const zz41037/4 (_ BitVec 64) zz41037/2)
(declare-const zz41498/1 Bits)
(assert (= (bvand (bvnot (bvnot (bvshl #xFFFFFFFFFFFFFFFF (concat #x00000000000000 (len zz41498/1))))) (contents zz41498/1)) #x0000000000000000))
(define-const zz41498/2 Bits (Zfloat_bits_zmantissa (Zfloat_bits (Bits #x05 (concat #b00000000000000000000000000000000000000000000000000000000000 ((_ extract 14 10) zz41030/2))) (Bits #x0A (concat #b000000000000000000000000000000000000000000000000000000 ((_ extract 9 0) zz41030/2))) ((_ extract 15 15) zz41030/2))))
(define-const zz41037/6 (_ BitVec 64) zz41037/4)
(define-const zz41501/2 Zfloat_bits (Zfloat_bits (Bits #x05 (concat #b00000000000000000000000000000000000000000000000000000000000 ((_ extract 14 10) zz41030/2))) (Bits #x0A (concat #b000000000000000000000000000000000000000000000000000000 ((_ extract 9 0) zz41030/2))) ((_ extract 15 15) zz41030/2)))
(declare-const zz41523/1 Bits)
(assert (= (bvand (bvnot (bvnot (bvshl #xFFFFFFFFFFFFFFFF (concat #x00000000000000 (len zz41523/1))))) (contents zz41523/1)) #x0000000000000000))
(define-const zz41523/2 Bits (Zfloat_bits_zexp zz41501/2))
(declare-const zz41524/1 Bits)
(assert (= (bvand (bvnot (bvnot (bvshl #xFFFFFFFFFFFFFFFF (concat #x00000000000000 (len zz41524/1))))) (contents zz41524/1)) #x0000000000000000))
(define-const zz41524/2 Bits (Zfloat_bits_zmantissa zz41501/2))
(declare-const zz41527/1 Bits)
(assert (= (bvand (bvnot (bvnot (bvshl #xFFFFFFFFFFFFFFFF (concat #x00000000000000 (len zz41527/1))))) (contents zz41527/1)) #x0000000000000000))
(declare-const zz41529/1 Bits)
(assert (= (bvand (bvnot (bvnot (bvshl #xFFFFFFFFFFFFFFFF (concat #x00000000000000 (len zz41529/1))))) (contents zz41529/1)) #x0000000000000000))
(define-const zz41529/2 Bits (Bits ((_ extract 7 0) (concat #x000000000000000000000000000000 (len zz41523/2))) #x0000000000000000))
(define-const zz41527/2 Bits (Bits (len zz41529/2) (bvand (bvnot (bvshl #xFFFFFFFFFFFFFFFF (concat #x00000000000000 (len zz41529/2)))) (bvnot (contents zz41529/2)))))
(declare-const zz41531/1 Bits)
(assert (= (bvand (bvnot (bvnot (bvshl #xFFFFFFFFFFFFFFFF (concat #x00000000000000 (len zz41531/1))))) (contents zz41531/1)) #x0000000000000000))
(define-const zz41531/2 Bits (Bits ((_ extract 7 0) (concat #x000000000000000000000000000000 (len zz41524/2))) #x0000000000000000))
(define-const zz41537/2 (_ BitVec 128) (concat #x000000000000000000000000000000 (len zz41498/2)))
(define-const zz41475/2 Bool (and (= (len zz41523/2) (len zz41527/2)) (= (bvand (bvnot (bvshl #xFFFFFFFFFFFFFFFF (concat #x00000000000000 (len zz41523/2)))) (contents zz41523/2)) (bvand (bvnot (bvshl #xFFFFFFFFFFFFFFFF (concat #x00000000000000 (len zz41527/2)))) (contents zz41527/2))) (or (not (= (len zz41524/2) (len zz41531/2))) (not (= (bvand (bvnot (bvshl #xFFFFFFFFFFFFFFFF (concat #x00000000000000 (len zz41524/2)))) (contents zz41524/2)) (bvand (bvnot (bvshl #xFFFFFFFFFFFFFFFF (concat #x00000000000000 (len zz41531/2)))) (contents zz41531/2))))) (= ((_ extract 0 0) (bvlshr (contents zz41498/2) ((_ extract 63 0) ((_ extract 127 0) (bvsub ((_ sign_extend 1) zz41537/2) #b000000000000000000000000000000000000000000000000000000000000000000000000000000000000000000000000000000000000000000000000000000001))))) #b1)))
(declare-const zz41538/1 (_ BitVec 64))
(define-const zz41540/2 Bool (= zz41475/2 false))
(define-const zz41542/2 Bool (= zz41475/2 true))
(define-const zphiz3773 Bool (and (not zz41542/2) (not zz41540/2)))
(define-const zz41037/8 (_ BitVec 64) zz41037/6)
(define-const zz41474/2 (_ BitVec 64) (ite zphiz3773 zz41538/1 (ite zz41540/2 #x0000000000000000 #x0000000000000001)))
(assert (and (or (and (or zz41542/2 zz41540/2) (not zz41540/2) (or zz41540/2 (not zz41542/2))) (not (= ((_ extract 63 0) (bvadd ((_ sign_extend 1) zz41037/8) ((_ sign_extend 1) zz41474/2))) #x0000000000000001))) (or (and (or zz41135/2 zz41133/2) (not zz41133/2) (or zz41133/2 (not zz41135/2))) (ite (= ((_ extract 63 63) (bvadd ((_ sign_extend 1) zz41045/6) ((_ sign_extend 1) zz41090/2))) #b1) (= ((_ extract 64 64) (bvadd ((_ sign_extend 1) zz41045/6) ((_ sign_extend 1) zz41090/2))) #b1) (= ((_ extract 64 64) (bvadd ((_ sign_extend 1) zz41045/6) ((_ sign_extend 1) zz41090/2))) #b0))) (or (and (or zz41180/2 zz41178/2) (not zz41178/2) (or zz41178/2 (not zz41180/2))) (ite (= ((_ extract 63 63) (bvadd ((_ sign_extend 1) zz41044/6) ((_ sign_extend 1) zz41136/2))) #b1) (= ((_ extract 64 64) (bvadd ((_ sign_extend 1) zz41044/6) ((_ sign_extend 1) zz41136/2))) #b1) (= ((_ extract 64 64) (bvadd ((_ sign_extend 1) zz41044/6) ((_ sign_extend 1) zz41136/2))) #b0))) (or (and (or zz41224/2 zz41222/2) (not zz41222/2) (or zz41222/2 (not zz41224/2))) (ite (= ((_ extract 63 63) (bvadd ((_ sign_extend 1) zz41043/6) ((_ sign_extend 1) zz41181/2))) #b1) (= ((_ extract 64 64) (bvadd ((_ sign_extend 1) zz41043/6) ((_ sign_extend 1) zz41181/2))) #b1) (= ((_ extract 64 64) (bvadd ((_ sign_extend 1) zz41043/6) ((_ sign_extend 1) zz41181/2))) #b0))) (or (and (or zz41268/2 zz41266/2) (not zz41266/2) (or zz41266/2 (not zz41268/2))) (ite (= ((_ extract 63 63) (bvadd ((_ sign_extend 1) zz41042/6) ((_ sign_extend 1) zz41225/2))) #b1) (= ((_ extract 64 64) (bvadd ((_ sign_extend 1) zz41042/6) ((_ sign_extend 1) zz41225/2))) #b1) (= ((_ extract 64 64) (bvadd ((_ sign_extend 1) zz41042/6) ((_ sign_extend 1) zz41225/2))) #b0))) (or (and (or zz41313/2 zz41311/2) (not zz41311/2) (or zz41311/2 (not zz41313/2))) (ite (= ((_ extract 63 63) (bvadd ((_ sign_extend 1) zz41041/6) ((_ sign_extend 1) zz41269/2))) #b1) (= ((_ extract 64 64) (bvadd ((_ sign_extend 1) zz41041/6) ((_ sign_extend 1) zz41269/2))) #b1) (= ((_ extract 64 64) (bvadd ((_ sign_extend 1) zz41041/6) ((_ sign_extend 1) zz41269/2))) #b0))) (or (and (or zz41359/2 zz41357/2) (not zz41357/2) (or zz41357/2 (not zz41359/2))) (ite (= ((_ extract 63 63) (bvadd ((_ sign_extend 1) zz41040/6) ((_ sign_extend 1) zz41314/2))) #b1) (= ((_ extract 64 64) (bvadd ((_ sign_extend 1) zz41040/6) ((_ sign_extend 1) zz41314/2))) #b1) (= ((_ extract 64 64) (bvadd ((_ sign_extend 1) zz41040/6) ((_ sign_extend 1) zz41314/2))) #b0))) (or (and (or zz41404/2 zz41402/2) (not zz41402/2) (or zz41402/2 (not zz41404/2))) (ite (= ((_ extract 63 63) (bvadd ((_ sign_extend 1) zz41039/6) ((_ sign_extend 1) zz41360/2))) #b1) (= ((_ extract 64 64) (bvadd ((_ sign_extend 1) zz41039/6) ((_ sign_extend 1) zz41360/2))) #b1) (= ((_ extract 64 64) (bvadd ((_ sign_extend 1) zz41039/6) ((_ sign_extend 1) zz41360/2))) #b0))) (ite (= ((_ extract 127 127) (bvsub ((_ sign_extend 1) zz41468/2) #b000000000000000000000000000000000000000000000000000000000000000000000000000000000000000000000000000000000000000000000000000000001)) #b1) (= ((_ extract 128 128) (bvsub ((_ sign_extend 1) zz41468/2) #b000000000000000000000000000000000000000000000000000000000000000000000000000000000000000000000000000000000000000000000000000000001)) #b1) (= ((_ extract 128 128) (bvsub ((_ sign_extend 1) zz41468/2) #b000000000000000000000000000000000000000000000000000000000000000000000000000000000000000000000000000000000000000000000000000000001)) #b0)) (or (and (or zz41473/2 zz41471/2) (not zz41471/2) (or zz41471/2 (not zz41473/2))) (ite (= ((_ extract 63 63) (bvadd ((_ sign_extend 1) zz41038/8) ((_ sign_extend 1) zz41405/2))) #b1) (= ((_ extract 64 64) (bvadd ((_ sign_extend 1) zz41038/8) ((_ sign_extend 1) zz41405/2))) #b1) (= ((_ extract 64 64) (bvadd ((_ sign_extend 1) zz41038/8) ((_ sign_extend 1) zz41405/2))) #b0))) (ite (= ((_ extract 127 127) (bvsub ((_ sign_extend 1) zz41537/2) #b000000000000000000000000000000000000000000000000000000000000000000000000000000000000000000000000000000000000000000000000000000001)) #b1) (= ((_ extract 128 128) (bvsub ((_ sign_extend 1) zz41537/2) #b000000000000000000000000000000000000000000000000000000000000000000000000000000000000000000000000000000000000000000000000000000001)) #b1) (= ((_ extract 128 128) (bvsub ((_ sign_extend 1) zz41537/2) #b000000000000000000000000000000000000000000000000000000000000000000000000000000000000000000000000000000000000000000000000000000001)) #b0)) (or (and (or zz41542/2 zz41540/2) (not zz41540/2) (or zz41540/2 (not zz41542/2))) (ite (= ((_ extract 63 63) (bvadd ((_ sign_extend 1) zz41037/8) ((_ sign_extend 1) zz41474/2))) #b1) (= ((_ extract 64 64) (bvadd ((_ sign_extend 1) zz41037/8) ((_ sign_extend 1) zz41474/2))) #b1) (= ((_ extract 64 64) (bvadd ((_ sign_extend 1) zz41037/8) ((_ sign_extend 1) zz41474/2))) #b0)))))
(check-sat)
